N = 10;
H = 5;
T = 2;

avail = array3d(1..N, 1..H, 1..T, [2, 9, 3, 5, 10, 6, 8, 8, 10, 8, 7, 0, 7, 6, 10, 5, 10, 5, 4, 0, 10, 9, 4, 5, 7, 1, 6, 0, 8, 2, 7, 1, 10, 1, 0, 6, 2, 9, 9, 3, 3, 10, 5, 3, 2, 2, 0, 2, 7, 8, 9, 7, 6, 7, 2, 9, 5, 2, 6, 1, 4, 3, 2, 0, 8, 0, 0, 3, 9, 9, 5, 0, 0, 7, 8, 5, 5, 4, 7, 9, 1, 8, 10, 3, 0, 3, 10, 7, 1, 6, 3, 0, 6, 2, 2, 3, 6, 5, 1, 5]);

r = array2d(1..H, 1..T, [4, 3, 2, 3, 1, 2, 0, 3, 1, 2]);
